n = 50;
capacity = 100;
size = [79, 78, 77, 75, 74, 71, 67, 66, 65, 65, 65, 64, 62, 61, 61, 60, 58, 56, 55, 55, 54, 54, 53, 52, 52, 50, 49, 47, 47, 47, 45, 44, 43, 39, 39, 38, 38, 36, 35, 35, 30, 29, 29, 28, 28, 28, 26, 24, 22, 21];
